NumGames = 8;
NumReferees = 29;
NumFields = 3;
game_id = [3560, 3581, 3582, 3583, 3584, 3585, 3586, 3587];
game_start = [720, 600, 690, 690, 780, 780, 870, 870];
game_end = [840, 720, 810, 810, 900, 900, 990, 990];
difficulty = [2, 1, 1, 1, 1, 1, 1, 1];
game_field = [1, 2, 2, 3, 2, 3, 2, 3];
referee_id = [2468, 3260, 3261, 3263, 3267, 3276, 3372, 3524, 3526, 3533, 3534, 3640, 3641, 7484, 7486, 7490, 7494, 7496, 7498, 7500, 7503, 7506, 7523, 7533, 7540, 7550, 7567, 7568, 7573];
main_exp = [124, 147, 36, 135, 36, 7, 0, 12, 57, 31, 4, 1, 0, 1, 14, 2, 1, 0, 2, 0, 18, 1, 5, 6, 0, 2, 4, 9, 0];
assist_exp = [81, 99, 66, 101, 133, 13, 3, 61, 106, 43, 23, 32, 1, 17, 66, 12, 12, 15, 24, 9, 59, 42, 0, 24, 6, 15, 25, 0, 0];
available_slots = array3d(1..NumReferees, 1..3, 1..2,[
  576,996, 0,0, 0,0,
  0,1440, 0,0, 0,0,
  600,900, 0,0, 0,0,
  0,1440, 0,0, 0,0,
  0,1440, 0,0, 0,0,
  -300,1140, 0,0, 0,0,
  0,1440, 0,0, 0,0,
  0,1440, 0,0, 0,0,
  0,1440, 0,0, 0,0,
  0,1440, 0,0, 0,0,
  870,1020, 0,0, 0,0,
  0,1440, 0,0, 0,0,
  780,900, 0,0, 0,0,
  0,1440, 0,0, 0,0,
  0,1440, 0,0, 0,0,
  0,1440, 0,0, 0,0,
  0,1440, 0,0, 0,0,
  0,1440, 0,0, 0,0,
  0,1440, 0,0, 0,0,
  691,1402, 0,0, 0,0,
  0,1440, 0,0, 0,0,
  840,1440, 0,0, 0,0,
  0,1440, 0,0, 0,0,
  0,1440, 0,0, 0,0,
  0,1440, 0,0, 0,0,
  0,1440, 0,0, 0,0,
  0,1440, 0,0, 0,0,
  0,1440, 0,0, 0,0,
  0,1440, 0,0, 0,0,
]);